p cnf 50 27
r 0.162 50 0
e 25 0
r 0.068 49 0
e 24 0
r 0.653 48 0
e 23 0
r 0.973 47 0
e 22 0
r 0.395 46 0
e 21 0
r 0.34 45 0
e 20 0
r 0.695 44 0
e 19 0
r 0.094 43 0
e 18 0
r 0.237 42 0
e 17 0
r 0.714 41 0
e 16 0
r 0.77 40 0
e 15 0
r 0.187 39 0
e 14 0
r 0.915 38 0
e 13 0
r 0.903 37 0
e 12 0
r 0.126 36 0
e 11 0
r 0.381 35 0
e 10 0
r 0.341 34 0
e 9 0
r 0.817 33 0
e 8 0
r 0.738 32 0
e 7 0
r 0.68 31 0
e 6 0
r 0.805 30 0
e 5 0
r 0.49 29 0
e 4 0
r 0.83 28 0
e 3 0
r 0.065 27 0
e 2 0
r 0.412 26 0
e 1 0
-25 0
25 49 -24 -48 -23 0
24 48 -23 -47 -22 0
23 47 -22 -46 -21 0
22 46 -21 -45 -20 0
21 45 -20 -44 -19 0
20 44 -19 -43 -18 0
19 43 -18 -42 -17 0
18 42 -17 -41 -16 0
17 41 -16 -40 -15 0
16 40 -15 -39 -14 0
15 39 -14 -38 -13 0
14 38 -13 -37 -12 0
13 37 -12 -36 -11 0
12 36 -11 -35 -10 0
11 35 -10 -34 -9 0
10 34 -9 -33 -8 0
9 33 -8 -32 -7 0
8 32 -7 -31 -6 0
7 31 -6 -30 -5 0
6 30 -5 -29 -4 0
5 29 -4 -28 -3 0
4 28 -3 -27 -2 0
3 27 -2 -26 -1 0
2 1 0
2 -1 0
-2 1 0
